\ LP format - for model browsing. Use MPS format to capture full model detail.
Maximize
  - 3.333333333333332 C0(2) - 225 Constant
Subject To
 c0: - C0(2) <= 2
 c1: C0(2) <= 15
Bounds
 C0(2) free
 Constant = 1
End
